30
1 0 32
2 0 66
2 1 45
3 0 3
3 1 94
3 2 36
4 0 62
4 1 19
4 2 10
4 3 82
5 0 7
5 1 83
5 2 11
5 3 48
5 4 36
6 0 51
6 1 41
6 2 86
6 3 35
6 4 70
6 5 14
7 0 62
7 1 64
7 2 8
7 3 91
7 4 91
7 5 16
7 6 29
8 0 89
8 1 50
8 2 21
8 3 73
8 4 87
8 5 69
8 6 76
8 7 54
9 0 5
9 1 92
9 2 58
9 3 67
9 4 43
9 5 49
9 6 86
9 7 92
9 8 26
10 0 96
10 1 9
10 2 15
10 3 99
10 4 7
10 5 47
10 6 18
10 7 43
10 8 24
10 9 12
11 0 97
11 1 26
11 2 99
11 3 92
11 4 19
11 5 4
11 6 91
11 7 64
11 8 25
11 9 36
11 10 89
12 0 69
12 1 32
12 2 76
12 3 83
12 4 83
12 5 5
12 6 57
12 7 11
12 8 42
12 9 88
12 10 90
12 11 35
13 0 21
13 1 24
13 2 20
13 3 37
13 4 72
13 5 5
13 6 32
13 7 37
13 8 67
13 9 19
13 10 1
13 11 75
13 12 11
14 0 96
14 1 9
14 2 99
14 3 5
14 4 76
14 5 85
14 6 65
14 7 85
14 8 27
14 9 56
14 10 36
14 11 72
14 12 12
14 13 82
15 0 23
15 1 90
15 2 75
15 3 35
15 4 27
15 5 59
15 6 81
15 7 56
15 8 65
15 9 60
15 10 52
15 11 62
15 12 80
15 13 18
15 14 66
16 0 23
16 1 83
16 2 72
16 3 24
16 4 20
16 5 72
16 6 12
16 7 96
16 8 47
16 9 14
16 10 8
16 11 93
16 12 20
16 13 7
16 14 63
16 15 47
17 0 13
17 1 44
17 2 55
17 3 77
17 4 33
17 5 40
17 6 59
17 7 74
17 8 94
17 9 13
17 10 70
17 11 51
17 12 66
17 13 15
17 14 47
17 15 17
17 16 96
18 0 56
18 1 71
18 2 88
18 3 31
18 4 76
18 5 80
18 6 41
18 7 1
18 8 44
18 9 8
18 10 62
18 11 32
18 12 96
18 13 69
18 14 61
18 15 83
18 16 55
18 17 45
19 0 47
19 1 59
19 2 66
19 3 70
19 4 85
19 5 23
19 6 55
19 7 27
19 8 78
19 9 4
19 10 9
19 11 86
19 12 49
19 13 95
19 14 6
19 15 68
19 16 15
19 17 69
19 18 61
20 0 3
20 1 75
20 2 62
20 3 73
20 4 10
20 5 61
20 6 9
20 7 65
20 8 36
20 9 13
20 10 25
20 11 77
20 12 10
20 13 88
20 14 63
20 15 38
20 16 18
20 17 9
20 18 98
20 19 33
21 0 95
21 1 13
21 2 19
21 3 48
21 4 89
21 5 58
21 6 28
21 7 38
21 8 48
21 9 86
21 10 68
21 11 71
21 12 32
21 13 80
21 14 41
21 15 44
21 16 60
21 17 26
21 18 89
21 19 52
21 20 16
22 0 88
22 1 37
22 2 81
22 3 15
22 4 66
22 5 29
22 6 43
22 7 75
22 8 71
22 9 7
22 10 69
22 11 42
22 12 54
22 13 10
22 14 51
22 15 95
22 16 69
22 17 1
22 18 70
22 19 91
22 20 57
22 21 31
23 0 65
23 1 49
23 2 74
23 3 19
23 4 39
23 5 85
23 6 18
23 7 98
23 8 87
23 9 28
23 10 8
23 11 50
23 12 10
23 13 98
23 14 26
23 15 45
23 16 39
23 17 20
23 18 37
23 19 36
23 20 84
23 21 1
23 22 30
24 0 95
24 1 88
24 2 94
24 3 58
24 4 85
24 5 47
24 6 37
24 7 66
24 8 97
24 9 31
24 10 25
24 11 27
24 12 4
24 13 95
24 14 66
24 15 41
24 16 10
24 17 7
24 18 24
24 19 53
24 20 91
24 21 90
24 22 39
24 23 9
25 0 66
25 1 73
25 2 10
25 3 33
25 4 35
25 5 11
25 6 39
25 7 19
25 8 73
25 9 92
25 10 94
25 11 63
25 12 80
25 13 56
25 14 50
25 15 59
25 16 4
25 17 98
25 18 92
25 19 77
25 20 4
25 21 24
25 22 100
25 23 52
25 24 20
26 0 73
26 1 56
26 2 74
26 3 52
26 4 47
26 5 29
26 6 65
26 7 82
26 8 90
26 9 42
26 10 63
26 11 83
26 12 16
26 13 23
26 14 67
26 15 98
26 16 80
26 17 82
26 18 99
26 19 84
26 20 42
26 21 85
26 22 97
26 23 58
26 24 61
26 25 3
27 0 44
27 1 87
27 2 20
27 3 65
27 4 84
27 5 3
27 6 84
27 7 42
27 8 6
27 9 50
27 10 24
27 11 28
27 12 71
27 13 80
27 14 56
27 15 18
27 16 17
27 17 55
27 18 4
27 19 85
27 20 95
27 21 36
27 22 64
27 23 97
27 24 78
27 25 55
27 26 23
28 0 52
28 1 76
28 2 97
28 3 84
28 4 1
28 5 45
28 6 49
28 7 82
28 8 86
28 9 56
28 10 85
28 11 95
28 12 29
28 13 90
28 14 1
28 15 93
28 16 38
28 17 46
28 18 14
28 19 68
28 20 15
28 21 95
28 22 84
28 23 45
28 24 86
28 25 23
28 26 36
28 27 68
29 0 88
29 1 21
29 2 78
29 3 7
29 4 85
29 5 41
29 6 57
29 7 27
29 8 87
29 9 13
29 10 79
29 11 27
29 12 3
29 13 91
29 14 4
29 15 30
29 16 64
29 17 82
29 18 77
29 19 77
29 20 65
29 21 66
29 22 69
29 23 75
29 24 45
29 25 16
29 26 33
29 27 83
29 28 83
